[VALIDATOR STDOUT]
Checking plan: /home/jfan5/Safety-gen/runs/benchmark/optic/blocksworld_20260205_140901/blocksworld/optic_results/bw_ops3_n20_seed20001.plan
Plan to validate:

Plan size: 74
1:
(pickup b3)
 
2:
(stack b3 b20)
 
3:
(unstack b8 b18)
 
4:
(putdown b8)
 
5:
(unstack b18 b12)
 
6:
(putdown b18)
 
7:
(unstack b12 b5)
 
8:
(putdown b12)
 
9:
(unstack b17 b11)
 
10:
(stack b17 b12)
 
11:
(unstack b11 b10)
 
12:
(putdown b11)
 
13:
(unstack b5 b13)
 
14:
(stack b5 b10)
 
15:
(unstack b13 b16)
 
16:
(stack b13 b18)
 
17:
(unstack b16 b19)
 
18:
(stack b16 b5)
 
19:
(unstack b19 b1)
 
20:
(putdown b19)
 
21:
(unstack b1 b9)
 
22:
(stack b1 b11)
 
23:
(unstack b9 b7)
 
24:
(putdown b9)
 
25:
(pickup b8)
 
26:
(stack b8 b7)
 
27:
(unstack b3 b20)
 
28:
(putdown b3)
 
29:
(unstack b8 b7)
 
30:
(putdown b8)
 
31:
(unstack b7 b6)
 
32:
(stack b7 b3)
 
33:
(pickup b9)
 
34:
(stack b9 b6)
 
35:
(pickup b8)
 
36:
(stack b8 b7)
 
37:
(unstack b16 b5)
 
38:
(putdown b16)
 
39:
(unstack b5 b10)
 
40:
(putdown b5)
 
41:
(unstack b10 b4)
 
42:
(putdown b10)
 
43:
(unstack b4 b15)
 
44:
(stack b4 b1)
 
45:
(pickup b10)
 
46:
(stack b10 b4)
 
47:
(pickup b5)
 
48:
(stack b5 b10)
 
49:
(pickup b16)
 
50:
(stack b16 b5)
 
51:
(unstack b15 b2)
 
52:
(stack b15 b16)
 
53:
(pickup b20)
 
54:
(stack b20 b2)
 
55:
(unstack b8 b7)
 
56:
(putdown b8)
 
57:
(unstack b7 b3)
 
58:
(putdown b7)
 
59:
(unstack b20 b2)
 
60:
(putdown b20)
 
61:
(pickup b2)
 
62:
(stack b2 b13)
 
63:
(pickup b20)
 
64:
(stack b20 b2)
 
65:
(pickup b8)
 
66:
(stack b8 b7)
 
67:
(pickup b3)
 
68:
(stack b3 b20)
 
69:
(unstack b8 b7)
 
70:
(putdown b8)
 
71:
(pickup b7)
 
72:
(stack b7 b3)
 
73:
(pickup b8)
 
74:
(stack b8 b7)
 

Plan Validation details
-----------------------

Checking next happening (time 1)
Deleting (clear b3)
Deleting (on-table b3)
Deleting (arm-empty)
Adding (holding b3)

Checking next happening (time 2)
Deleting (clear b20)
Deleting (holding b3)
Adding (arm-empty)
Adding (clear b3)
Adding (on b3 b20)

Checking next happening (time 3)
Deleting (on b8 b18)
Deleting (clear b8)
Deleting (arm-empty)
Adding (holding b8)
Adding (clear b18)

Checking next happening (time 4)
Deleting (holding b8)
Adding (clear b8)
Adding (arm-empty)
Adding (on-table b8)

Checking next happening (time 5)
Deleting (on b18 b12)
Deleting (clear b18)
Deleting (arm-empty)
Adding (holding b18)
Adding (clear b12)

Checking next happening (time 6)
Deleting (holding b18)
Adding (clear b18)
Adding (arm-empty)
Adding (on-table b18)

Checking next happening (time 7)
Deleting (on b12 b5)
Deleting (clear b12)
Deleting (arm-empty)
Adding (holding b12)
Adding (clear b5)

Checking next happening (time 8)
Deleting (holding b12)
Adding (clear b12)
Adding (arm-empty)
Adding (on-table b12)

Checking next happening (time 9)
Deleting (on b17 b11)
Deleting (clear b17)
Deleting (arm-empty)
Adding (holding b17)
Adding (clear b11)

Checking next happening (time 10)
Deleting (clear b12)
Deleting (holding b17)
Adding (arm-empty)
Adding (clear b17)
Adding (on b17 b12)

Checking next happening (time 11)
Deleting (on b11 b10)
Deleting (clear b11)
Deleting (arm-empty)
Adding (holding b11)
Adding (clear b10)

Checking next happening (time 12)
Deleting (holding b11)
Adding (clear b11)
Adding (arm-empty)
Adding (on-table b11)

Checking next happening (time 13)
Deleting (on b5 b13)
Deleting (clear b5)
Deleting (arm-empty)
Adding (holding b5)
Adding (clear b13)

Checking next happening (time 14)
Deleting (clear b10)
Deleting (holding b5)
Adding (arm-empty)
Adding (clear b5)
Adding (on b5 b10)

Checking next happening (time 15)
Deleting (on b13 b16)
Deleting (clear b13)
Deleting (arm-empty)
Adding (holding b13)
Adding (clear b16)

Checking next happening (time 16)
Deleting (clear b18)
Deleting (holding b13)
Adding (arm-empty)
Adding (clear b13)
Adding (on b13 b18)

Checking next happening (time 17)
Deleting (on b16 b19)
Deleting (clear b16)
Deleting (arm-empty)
Adding (holding b16)
Adding (clear b19)

Checking next happening (time 18)
Deleting (clear b5)
Deleting (holding b16)
Adding (arm-empty)
Adding (clear b16)
Adding (on b16 b5)

Checking next happening (time 19)
Deleting (on b19 b1)
Deleting (clear b19)
Deleting (arm-empty)
Adding (holding b19)
Adding (clear b1)

Checking next happening (time 20)
Deleting (holding b19)
Adding (clear b19)
Adding (arm-empty)
Adding (on-table b19)

Checking next happening (time 21)
Deleting (on b1 b9)
Deleting (clear b1)
Deleting (arm-empty)
Adding (holding b1)
Adding (clear b9)

Checking next happening (time 22)
Deleting (clear b11)
Deleting (holding b1)
Adding (arm-empty)
Adding (clear b1)
Adding (on b1 b11)

Checking next happening (time 23)
Deleting (on b9 b7)
Deleting (clear b9)
Deleting (arm-empty)
Adding (holding b9)
Adding (clear b7)

Checking next happening (time 24)
Deleting (holding b9)
Adding (clear b9)
Adding (arm-empty)
Adding (on-table b9)

Checking next happening (time 25)
Deleting (clear b8)
Deleting (on-table b8)
Deleting (arm-empty)
Adding (holding b8)

Checking next happening (time 26)
Deleting (clear b7)
Deleting (holding b8)
Adding (arm-empty)
Adding (clear b8)
Adding (on b8 b7)

Checking next happening (time 27)
Deleting (on b3 b20)
Deleting (clear b3)
Deleting (arm-empty)
Adding (holding b3)
Adding (clear b20)

Checking next happening (time 28)
Deleting (holding b3)
Adding (clear b3)
Adding (arm-empty)
Adding (on-table b3)

Checking next happening (time 29)
Deleting (on b8 b7)
Deleting (clear b8)
Deleting (arm-empty)
Adding (holding b8)
Adding (clear b7)

Checking next happening (time 30)
Deleting (holding b8)
Adding (clear b8)
Adding (arm-empty)
Adding (on-table b8)

Checking next happening (time 31)
Deleting (on b7 b6)
Deleting (clear b7)
Deleting (arm-empty)
Adding (holding b7)
Adding (clear b6)

Checking next happening (time 32)
Deleting (clear b3)
Deleting (holding b7)
Adding (arm-empty)
Adding (clear b7)
Adding (on b7 b3)

Checking next happening (time 33)
Deleting (clear b9)
Deleting (on-table b9)
Deleting (arm-empty)
Adding (holding b9)

Checking next happening (time 34)
Deleting (clear b6)
Deleting (holding b9)
Adding (arm-empty)
Adding (clear b9)
Adding (on b9 b6)

Checking next happening (time 35)
Deleting (clear b8)
Deleting (on-table b8)
Deleting (arm-empty)
Adding (holding b8)

Checking next happening (time 36)
Deleting (clear b7)
Deleting (holding b8)
Adding (arm-empty)
Adding (clear b8)
Adding (on b8 b7)

Checking next happening (time 37)
Deleting (on b16 b5)
Deleting (clear b16)
Deleting (arm-empty)
Adding (holding b16)
Adding (clear b5)

Checking next happening (time 38)
Deleting (holding b16)
Adding (clear b16)
Adding (arm-empty)
Adding (on-table b16)

Checking next happening (time 39)
Deleting (on b5 b10)
Deleting (clear b5)
Deleting (arm-empty)
Adding (holding b5)
Adding (clear b10)

Checking next happening (time 40)
Deleting (holding b5)
Adding (clear b5)
Adding (arm-empty)
Adding (on-table b5)

Checking next happening (time 41)
Deleting (on b10 b4)
Deleting (clear b10)
Deleting (arm-empty)
Adding (holding b10)
Adding (clear b4)

Checking next happening (time 42)
Deleting (holding b10)
Adding (clear b10)
Adding (arm-empty)
Adding (on-table b10)

Checking next happening (time 43)
Deleting (on b4 b15)
Deleting (clear b4)
Deleting (arm-empty)
Adding (holding b4)
Adding (clear b15)

Checking next happening (time 44)
Deleting (clear b1)
Deleting (holding b4)
Adding (arm-empty)
Adding (clear b4)
Adding (on b4 b1)

Checking next happening (time 45)
Deleting (clear b10)
Deleting (on-table b10)
Deleting (arm-empty)
Adding (holding b10)

Checking next happening (time 46)
Deleting (clear b4)
Deleting (holding b10)
Adding (arm-empty)
Adding (clear b10)
Adding (on b10 b4)

Checking next happening (time 47)
Deleting (clear b5)
Deleting (on-table b5)
Deleting (arm-empty)
Adding (holding b5)

Checking next happening (time 48)
Deleting (clear b10)
Deleting (holding b5)
Adding (arm-empty)
Adding (clear b5)
Adding (on b5 b10)

Checking next happening (time 49)
Deleting (clear b16)
Deleting (on-table b16)
Deleting (arm-empty)
Adding (holding b16)

Checking next happening (time 50)
Deleting (clear b5)
Deleting (holding b16)
Adding (arm-empty)
Adding (clear b16)
Adding (on b16 b5)

Checking next happening (time 51)
Deleting (on b15 b2)
Deleting (clear b15)
Deleting (arm-empty)
Adding (holding b15)
Adding (clear b2)

Checking next happening (time 52)
Deleting (clear b16)
Deleting (holding b15)
Adding (arm-empty)
Adding (clear b15)
Adding (on b15 b16)

Checking next happening (time 53)
Deleting (clear b20)
Deleting (on-table b20)
Deleting (arm-empty)
Adding (holding b20)

Checking next happening (time 54)
Deleting (clear b2)
Deleting (holding b20)
Adding (arm-empty)
Adding (clear b20)
Adding (on b20 b2)

Checking next happening (time 55)
Deleting (on b8 b7)
Deleting (clear b8)
Deleting (arm-empty)
Adding (holding b8)
Adding (clear b7)

Checking next happening (time 56)
Deleting (holding b8)
Adding (clear b8)
Adding (arm-empty)
Adding (on-table b8)

Checking next happening (time 57)
Deleting (on b7 b3)
Deleting (clear b7)
Deleting (arm-empty)
Adding (holding b7)
Adding (clear b3)

Checking next happening (time 58)
Deleting (holding b7)
Adding (clear b7)
Adding (arm-empty)
Adding (on-table b7)

Checking next happening (time 59)
Deleting (on b20 b2)
Deleting (clear b20)
Deleting (arm-empty)
Adding (holding b20)
Adding (clear b2)

Checking next happening (time 60)
Deleting (holding b20)
Adding (clear b20)
Adding (arm-empty)
Adding (on-table b20)

Checking next happening (time 61)
Deleting (clear b2)
Deleting (on-table b2)
Deleting (arm-empty)
Adding (holding b2)

Checking next happening (time 62)
Deleting (clear b13)
Deleting (holding b2)
Adding (arm-empty)
Adding (clear b2)
Adding (on b2 b13)

Checking next happening (time 63)
Deleting (clear b20)
Deleting (on-table b20)
Deleting (arm-empty)
Adding (holding b20)

Checking next happening (time 64)
Deleting (clear b2)
Deleting (holding b20)
Adding (arm-empty)
Adding (clear b20)
Adding (on b20 b2)

Checking next happening (time 65)
Deleting (clear b8)
Deleting (on-table b8)
Deleting (arm-empty)
Adding (holding b8)

Checking next happening (time 66)
Deleting (clear b7)
Deleting (holding b8)
Adding (arm-empty)
Adding (clear b8)
Adding (on b8 b7)

Checking next happening (time 67)
Deleting (clear b3)
Deleting (on-table b3)
Deleting (arm-empty)
Adding (holding b3)

Checking next happening (time 68)
Deleting (clear b20)
Deleting (holding b3)
Adding (arm-empty)
Adding (clear b3)
Adding (on b3 b20)

Checking next happening (time 69)
Deleting (on b8 b7)
Deleting (clear b8)
Deleting (arm-empty)
Adding (holding b8)
Adding (clear b7)

Checking next happening (time 70)
Deleting (holding b8)
Adding (clear b8)
Adding (arm-empty)
Adding (on-table b8)

Checking next happening (time 71)
Deleting (clear b7)
Deleting (on-table b7)
Deleting (arm-empty)
Adding (holding b7)

Checking next happening (time 72)
Deleting (clear b3)
Deleting (holding b7)
Adding (arm-empty)
Adding (clear b7)
Adding (on b7 b3)

Checking next happening (time 73)
Deleting (clear b8)
Deleting (on-table b8)
Deleting (arm-empty)
Adding (holding b8)

Checking next happening (time 74)
Deleting (clear b7)
Deleting (holding b8)
Adding (arm-empty)
Adding (clear b8)
Adding (on b8 b7)
Plan executed successfully - checking goal
Plan valid
Final value: 74 

Successful plans:
Value: 74
 /home/jfan5/Safety-gen/runs/benchmark/optic/blocksworld_20260205_140901/blocksworld/optic_results/bw_ops3_n20_seed20001.plan 74
